#pLT is two-dimensional [i,r]=[component, individual]
#[i,*] means all data in row i.

param pLT := 
[1,*]
1  0    2  8    3  5    4  7    5  4    6  4    7  7    8  7    9  9    10 6    
11 5    12 9    

[2,*]
1  2    2  3    3  4    4  2    5  2    6  4    7  4    8  5    9  3    10 3    
11 5    12 3    

[3,*]
1  1    2  3    3  2    4  2    5  3    6  3    7  4    8  2    9  2    10 3    
11 2    12 3    

[4,*]
1  1    2  1    3  1    4  2    5  2    6  3    7  2    8  2    9  3    10 2    
11 2    12 2    

[5,*]
1  1    2  1    3  1    4  2    5  2    6  1    7  1    8  2    9  1    10 1    
11 1    12 1    

[6,*]
1  1    2  4    3  4    4  6    5  3    6  3    7  5    8  4    9  4    10 4    
11 2    12 3    

[7,*]
1  4    2  6    3  7    4  5    5  5    6  7    7  5    8  6    9  5    10 4    
11 4    12 5    

[8,*]
1  1    2  2    3  1    4  1    5  2    6  1    7  1    8  1    9  1    10 1    
11 1    12 1    

[9,*]
1  1    2  1    3  1    4  2    5  1    6  1    7  1    8  1    9  1    10 1    
11 1    12 1    

[10,*]
1  1    2  1    3  1    4  1    5  1    6  1    7  1    8  1    9  1    10 1    
11 1    12 1    
;